2
150 2
63
20 1 2
21 1 1
22 1 2
23 1 3
24 1 3
27 1 2
28 1 2
30 1 3
31 1 2
32 1 1
33 1 1
34 1 2
36 1 4
37 1 2
38 1 3
39 1 2
40 1 2
41 1 3
42 1 2
43 1 3
44 1 2
46 1 1
47 1 1
48 1 1
49 1 1
53 1 2
54 1 2
55 1 2
56 1 2
58 1 1
60 1 1
61 1 5
63 1 1
64 1 2
67 1 1
68 1 1
69 1 2
70 1 1
71 1 2
72 1 1
73 1 2
74 1 2
75 1 1
76 1 2
77 1 2
78 1 1
80 1 2
81 1 2
82 1 2
83 1 1
85 1 1
86 1 2
88 1 2
89 1 2
90 1 2
91 1 2
93 1 3
95 1 1
96 1 1
97 1 2
98 1 3
99 1 3
100 1 2
